523,188
681,226
681,166
685,377
711,406
734,433
699,463
826,301
1041,46
980,-6
1162,161
1137,258
1036,462
923,582
927,745
1062,787
789,193
494,311
463,248
641,486
504,753
245,723
639,672
681,586
787,512
898,833
802,494
858,434
635,702
542,833
560,494
494,501
593,420
